p cnf 17 36
-6 -7 12 0
1 -6 -8 0
4 -6 -10 0
13 -14 -17 0
-2 -7 16 0
-1 5 9 0
10 -12 15 0
9 -11 -15 0
9 15 -16 0
-6 13 -16 0
4 -11 -13 0
-5 -7 -14 0
6 -7 11 0
4 -6 -16 0
-3 -7 13 0
-2 -7 10 0
5 -11 -17 0
1 -11 15 0
4 11 -16 0
-10 11 -16 0
1 5 -15 0
2 -6 16 0
-4 7 -8 0
-4 -10 -13 0
3 -7 14 0
-8 -12 16 0
-2 3 4 0
-1 -2 -15 0
-1 11 17 0
-6 8 -11 0
2 12 -15 0
2 -10 -17 0
-1 9 16 0
-5 -8 -9 0
-10 -12 -17 0
-1 3 -16 0
